(declare-fun var0 () String)
(assert (str.in.re var0 (re.++ (re.+ (re.+ (re.union (re.union (re.* (re.union (re.+ (re.union (re.* (str.to.re "hh")) (re.+ (str.to.re "iii")))) (re.union (re.+ (re.* (str.to.re "j"))) (re.* (re.* (str.to.re "kkk")))))) (re.+ (re.* (re.+ (re.union (re.+ (str.to.re "ll")) (re.* (str.to.re "mmm"))))))) (re.union (re.+ (re.union (re.* (re.* (re.* (str.to.re "nn")))) (re.union (re.union (re.* (str.to.re "ooo")) (re.+ (str.to.re "ppp"))) (re.union (re.+ (str.to.re "q")) (re.union (str.to.re "rr") (str.to.re "ss")))))) (re.+ (re.union (re.union (re.+ (re.* (str.to.re "tt"))) (re.+ (re.+ (str.to.re "u")))) (re.union (re.+ (re.union (str.to.re "v") (str.to.re "ww"))) (re.union (re.* (str.to.re "xxx")) (re.union (str.to.re "y") (str.to.re "z")))))))))) (re.union (re.* (re.* (re.* (re.union (re.+ (re.* (re.union (re.+ (str.to.re "000")) (re.+ (str.to.re "11"))))) (re.+ (re.* (re.+ (re.union (str.to.re "222") (str.to.re "33"))))))))) (re.* (re.union (re.union (re.union (re.union (re.+ (re.+ (re.union (str.to.re "444") (str.to.re "5")))) (re.* (re.* (re.* (str.to.re "666"))))) (re.* (re.* (re.union (re.union (str.to.re "777") (str.to.re "888")) (re.* (str.to.re "99")))))) (re.* (re.+ (re.union (re.+ (re.* (str.to.re "a"))) (re.* (re.* (str.to.re "bbb"))))))) (re.* (re.+ (re.* (re.union (re.union (re.+ (str.to.re "c")) (re.union (str.to.re "d") (str.to.re "ee"))) (re.union (re.* (str.to.re "fff")) (re.+ (str.to.re "ggg")))))))))))))
(assert (<= 15 (str.len var0)))
(check-sat)